(set-info :source |printed by MathSAT|)
(declare-fun |.x{1}| () Int)
(declare-fun |.x{363}| () Int)
(declare-fun |.x{29}| () Int)
(declare-fun |.x{364}| () Int)
(declare-fun |.x{3}| () Int)
(declare-fun |.x{365}| () Int)
(declare-fun |.x{31}| () (Array Int Int))
(declare-fun |.x{366}| () (Array Int Int))
(declare-fun |.x{5}| () (Array Int Int))
(declare-fun |.x{367}| () (Array Int Int))
(declare-fun |.x{6}| () (Array Int (Array Int Int)))
(declare-fun |.x{368}| () (Array Int (Array Int Int)))
(declare-fun |.x{34}| () Int)
(declare-fun |.x{369}| () Int)
(declare-fun |.x{8}| () Int)
(declare-fun |.x{370}| () Int)
(declare-fun |.x{36}| () Int)
(declare-fun |.x{371}| () Int)
(declare-fun |.x{10}| () Int)
(declare-fun |.x{372}| () Int)
(declare-fun |.x{38}| () Int)
(declare-fun |.x{373}| () Int)
(declare-fun |.x{12}| () Int)
(declare-fun |.x{374}| () Int)
(declare-fun |.x{40}| () (Array Int Int))
(declare-fun |.x{375}| () (Array Int Int))
(declare-fun |.x{14}| () (Array Int Int))
(declare-fun |.x{376}| () (Array Int Int))
(declare-fun |.x{42}| () Int)
(declare-fun |.x{377}| () Int)
(declare-fun |.x{16}| () Int)
(declare-fun |.x{378}| () Int)
(declare-fun |.x{17}| () Int)
(declare-fun |.x{379}| () Int)
(declare-fun |.x{18}| () Int)
(declare-fun |.x{380}| () Int)
(declare-fun |.x{19}| () Int)
(declare-fun |.x{381}| () Int)
(declare-fun |.x{20}| () Int)
(declare-fun |.x{382}| () Int)
(declare-fun |.x{21}| () Int)
(declare-fun |.x{383}| () Int)
(declare-fun |.x{22}| () Int)
(declare-fun |.x{384}| () Int)
(declare-fun |.x{23}| () Int)
(declare-fun |.x{385}| () Int)
(declare-fun |.x{24}| () Int)
(declare-fun |.x{386}| () Int)
(declare-fun |.x{25}| () Int)
(declare-fun |.x{387}| () Int)
(declare-fun |.x{26}| () Int)
(declare-fun |.x{388}| () Int)
(declare-fun |.x{27}| () Bool)
(declare-fun |.x{335}| () Bool)
(declare-fun |.loc{3}| () Bool)
(declare-fun |.loc{5}| () Bool)
(declare-fun |.loc{4}| () Bool)
(declare-fun |.loc{6}| () Bool)
(define-fun .def_64 () Bool (! |.loc{4}| :next |.loc{6}|))
(define-fun .def_202 () Bool (not .def_64))
(define-fun .def_62 () Bool (! |.loc{3}| :next |.loc{5}|))
(define-fun .def_100 () Bool (not .def_62))
(define-fun .def_224 () Bool (and .def_100 .def_202))
(define-fun .def_12 () Int (! |.x{3}| :next |.x{365}|))
(define-fun .def_10 () Int (! |.x{29}| :next |.x{364}|))
(define-fun .def_216 () Bool (= .def_10 .def_12))
(define-fun .def_38 () Int (! |.x{16}| :next |.x{378}|))
(define-fun .def_36 () Int (! |.x{42}| :next |.x{377}|))
(define-fun .def_215 () Bool (= .def_36 .def_38))
(define-fun .def_217 () Bool (and .def_215 .def_216))
(define-fun .def_30 () Int (! |.x{12}| :next |.x{374}|))
(define-fun .def_28 () Int (! |.x{38}| :next |.x{373}|))
(define-fun .def_214 () Bool (= .def_28 .def_30))
(define-fun .def_218 () Bool (and .def_214 .def_217))
(define-fun .def_26 () Int (! |.x{10}| :next |.x{372}|))
(define-fun .def_24 () Int (! |.x{36}| :next |.x{371}|))
(define-fun .def_213 () Bool (= .def_24 .def_26))
(define-fun .def_219 () Bool (and .def_213 .def_218))
(define-fun .def_60 () Bool (! |.x{27}| :next |.x{335}|))
(define-fun .def_212 () Bool (not .def_60))
(define-fun .def_220 () Bool (and .def_212 .def_219))
(define-fun .def_22 () Int (! |.x{8}| :next |.x{370}|))
(define-fun .def_20 () Int (! |.x{34}| :next |.x{369}|))
(define-fun .def_211 () Bool (= .def_20 .def_22))
(define-fun .def_221 () Bool (and .def_211 .def_220))
(define-fun .def_16 () (Array Int Int) (! |.x{5}| :next |.x{367}|))
(define-fun .def_14 () (Array Int Int) (! |.x{31}| :next |.x{366}|))
(define-fun .def_210 () Bool (= .def_14 .def_16))
(define-fun .def_222 () Bool (and .def_210 .def_221))
(define-fun .def_34 () (Array Int Int) (! |.x{14}| :next |.x{376}|))
(define-fun .def_32 () (Array Int Int) (! |.x{40}| :next |.x{375}|))
(define-fun .def_209 () Bool (= .def_32 .def_34))
(define-fun .def_223 () Bool (and .def_209 .def_222))
(define-fun .def_225 () Bool (! (and .def_223 .def_224) :init true))
(define-fun .def_206 () Bool (= .def_38 |.x{378}|))
(define-fun .def_204 () Bool (= .def_34 |.x{376}|))
(define-fun .def_200 () Bool (= .def_30 |.x{374}|))
(define-fun .def_198 () Bool (= .def_26 |.x{372}|))
(define-fun .def_196 () Bool (= .def_22 |.x{370}|))
(define-fun .def_18 () (Array Int (Array Int Int)) (! |.x{6}| :next |.x{368}|))
(define-fun .def_194 () Bool (= .def_18 |.x{368}|))
(define-fun .def_192 () Bool (= .def_16 |.x{367}|))
(define-fun .def_8 () Int (! |.x{1}| :next |.x{363}|))
(define-fun .def_190 () Bool (= .def_8 |.x{363}|))
(define-fun .def_189 () Bool (= .def_12 |.x{365}|))
(define-fun .def_191 () Bool (and .def_189 .def_190))
(define-fun .def_193 () Bool (and .def_191 .def_192))
(define-fun .def_195 () Bool (and .def_193 .def_194))
(define-fun .def_197 () Bool (and .def_195 .def_196))
(define-fun .def_199 () Bool (and .def_197 .def_198))
(define-fun .def_201 () Bool (and .def_199 .def_200))
(define-fun .def_203 () Bool (and .def_201 .def_202))
(define-fun .def_205 () Bool (and .def_203 .def_204))
(define-fun .def_207 () Bool (and .def_205 .def_206))
(define-fun .def_185 () Bool (not |.loc{5}|))
(define-fun .def_111 () Bool (= |.x{380}| |.x{386}|))
(define-fun .def_174 () Bool (not .def_111))
(define-fun .def_110 () Bool (= |.x{383}| |.x{385}|))
(define-fun .def_173 () Bool (not .def_110))
(define-fun .def_175 () Bool (or .def_173 .def_174))
(define-fun .def_176 () Bool (or .def_60 .def_175))
(define-fun .def_128 () Bool (= |.x{385}| |.x{387}|))
(define-fun .def_126 () Bool (= |.x{379}| |.x{386}|))
(define-fun .def_124 () Bool (= |.x{380}| |.x{382}|))
(define-fun .def_122 () Bool (= |.x{383}| |.x{388}|))
(define-fun .def_118 () Bool (= |.x{369}| |.x{388}|))
(define-fun .def_117 () Bool (= |.x{369}| |.x{387}|))
(define-fun .def_119 () Bool (and .def_117 .def_118))
(define-fun .def_116 () Bool (= |.x{373}| |.x{382}|))
(define-fun .def_120 () Bool (and .def_116 .def_119))
(define-fun .def_115 () Bool (= |.x{373}| |.x{379}|))
(define-fun .def_121 () Bool (and .def_115 .def_120))
(define-fun .def_123 () Bool (and .def_121 .def_122))
(define-fun .def_125 () Bool (and .def_123 .def_124))
(define-fun .def_127 () Bool (and .def_125 .def_126))
(define-fun .def_129 () Bool (and .def_127 .def_128))
(define-fun .def_171 () Bool (or .def_60 .def_129))
(define-fun .def_92 () (Array Int Int) (select .def_18 |.x{369}|))
(define-fun .def_93 () Int (select .def_92 |.x{373}|))
(define-fun .def_94 () Bool (= .def_93 0))
(define-fun .def_90 () Bool (= |.x{373}| 0))
(define-fun .def_87 () Bool (<= .def_8 |.x{369}|))
(define-fun .def_88 () Bool (not .def_87))
(define-fun .def_79 () (Array Int Int) (store .def_14 0 0))
(define-fun .def_84 () (Array Int Int) (store .def_79 |.x{369}| 1))
(define-fun .def_85 () Bool (= |.x{366}| .def_84))
(define-fun .def_80 () Int (select .def_79 |.x{369}|))
(define-fun .def_81 () Bool (= .def_80 0))
(define-fun .def_76 () Bool (= |.x{369}| 0))
(define-fun .def_77 () Bool (not .def_76))
(define-fun .def_74 () Bool (= |.x{364}| 0))
(define-fun .def_72 () Bool (= |.x{377}| 0))
(define-fun .def_70 () Bool (= |.x{371}| 0))
(define-fun .def_67 () (Array Int Int) (store .def_32 |.x{369}| 4))
(define-fun .def_68 () Bool (= |.x{375}| .def_67))
(define-fun .def_71 () Bool (and .def_68 .def_70))
(define-fun .def_73 () Bool (and .def_71 .def_72))
(define-fun .def_75 () Bool (and .def_73 .def_74))
(define-fun .def_78 () Bool (and .def_75 .def_77))
(define-fun .def_82 () Bool (and .def_78 .def_81))
(define-fun .def_86 () Bool (and .def_82 .def_85))
(define-fun .def_89 () Bool (and .def_86 .def_88))
(define-fun .def_91 () Bool (and .def_89 .def_90))
(define-fun .def_95 () Bool (and .def_91 .def_94))
(define-fun .def_96 () Bool (or .def_60 .def_95))
(define-fun .def_172 () Bool (and .def_96 .def_171))
(define-fun .def_177 () Bool (and .def_172 .def_176))
(define-fun .def_178 () Bool (and .def_100 .def_177))
(define-fun .def_179 () Bool (and |.x{335}| .def_178))
(define-fun .def_180 () Bool (and |.x{335}| .def_179))
(define-fun .def_44 () Int (! |.x{19}| :next |.x{381}|))
(define-fun .def_104 () Bool (= .def_44 |.x{381}|))
(define-fun .def_181 () Bool (and .def_104 .def_180))
(define-fun .def_182 () Bool (and .def_104 .def_181))
(define-fun .def_168 () Bool (= |.x{384}| 0))
(define-fun .def_169 () Bool (or .def_60 .def_168))
(define-fun .def_166 () Bool (= .def_10 |.x{364}|))
(define-fun .def_164 () Bool (= .def_14 |.x{366}|))
(define-fun .def_162 () Bool (= .def_20 |.x{369}|))
(define-fun .def_160 () Bool (= .def_24 |.x{371}|))
(define-fun .def_157 () Bool (= .def_28 |.x{373}|))
(define-fun .def_155 () Bool (= .def_32 |.x{375}|))
(define-fun .def_153 () Bool (= .def_36 |.x{377}|))
(define-fun .def_40 () Int (! |.x{17}| :next |.x{379}|))
(define-fun .def_151 () Bool (= .def_40 |.x{379}|))
(define-fun .def_42 () Int (! |.x{18}| :next |.x{380}|))
(define-fun .def_149 () Bool (= .def_42 |.x{380}|))
(define-fun .def_46 () Int (! |.x{20}| :next |.x{382}|))
(define-fun .def_147 () Bool (= .def_46 |.x{382}|))
(define-fun .def_48 () Int (! |.x{21}| :next |.x{383}|))
(define-fun .def_145 () Bool (= .def_48 |.x{383}|))
(define-fun .def_52 () Int (! |.x{23}| :next |.x{385}|))
(define-fun .def_143 () Bool (= .def_52 |.x{385}|))
(define-fun .def_54 () Int (! |.x{24}| :next |.x{386}|))
(define-fun .def_141 () Bool (= .def_54 |.x{386}|))
(define-fun .def_56 () Int (! |.x{25}| :next |.x{387}|))
(define-fun .def_139 () Bool (= .def_56 |.x{387}|))
(define-fun .def_58 () Int (! |.x{26}| :next |.x{388}|))
(define-fun .def_137 () Bool (= .def_58 |.x{388}|))
(define-fun .def_134 () Bool (= |.x{381}| |.x{384}|))
(define-fun .def_135 () Bool (or |.x{335}| .def_134))
(define-fun .def_106 () Bool (= .def_60 |.x{335}|))
(define-fun .def_136 () Bool (and .def_106 .def_135))
(define-fun .def_138 () Bool (and .def_136 .def_137))
(define-fun .def_140 () Bool (and .def_138 .def_139))
(define-fun .def_142 () Bool (and .def_140 .def_141))
(define-fun .def_144 () Bool (and .def_142 .def_143))
(define-fun .def_146 () Bool (and .def_144 .def_145))
(define-fun .def_148 () Bool (and .def_146 .def_147))
(define-fun .def_150 () Bool (and .def_148 .def_149))
(define-fun .def_152 () Bool (and .def_150 .def_151))
(define-fun .def_154 () Bool (and .def_152 .def_153))
(define-fun .def_156 () Bool (and .def_154 .def_155))
(define-fun .def_158 () Bool (and .def_156 .def_157))
(define-fun .def_159 () Bool (and .def_62 .def_158))
(define-fun .def_161 () Bool (and .def_159 .def_160))
(define-fun .def_163 () Bool (and .def_161 .def_162))
(define-fun .def_165 () Bool (and .def_163 .def_164))
(define-fun .def_167 () Bool (and .def_165 .def_166))
(define-fun .def_170 () Bool (and .def_167 .def_169))
(define-fun .def_183 () Bool (or .def_170 .def_182))
(define-fun .def_184 () Bool (and |.loc{6}| .def_183))
(define-fun .def_186 () Bool (and .def_184 .def_185))
(define-fun .def_130 () Bool (or |.x{335}| .def_129))
(define-fun .def_112 () Bool (and .def_110 .def_111))
(define-fun .def_113 () Bool (or |.x{335}| .def_112))
(define-fun .def_107 () Bool (and .def_96 .def_106))
(define-fun .def_98 () Bool (not |.loc{6}|))
(define-fun .def_108 () Bool (and .def_98 .def_107))
(define-fun .def_109 () Bool (and .def_100 .def_108))
(define-fun .def_114 () Bool (and .def_109 .def_113))
(define-fun .def_131 () Bool (and .def_114 .def_130))
(define-fun .def_132 () Bool (and |.loc{5}| .def_131))
(define-fun .def_133 () Bool (and .def_104 .def_132))
(define-fun .def_187 () Bool (or .def_133 .def_186))
(define-fun .def_97 () Bool (and |.x{335}| .def_96))
(define-fun .def_99 () Bool (and .def_97 .def_98))
(define-fun .def_101 () Bool (and .def_99 .def_100))
(define-fun .def_102 () Bool (and .def_60 .def_101))
(define-fun .def_103 () Bool (and |.loc{5}| .def_102))
(define-fun .def_105 () Bool (and .def_103 .def_104))
(define-fun .def_188 () Bool (or .def_105 .def_187))
(define-fun .def_208 () Bool (! (and .def_188 .def_207) :trans true))
(define-fun .def_50 () Int (! |.x{22}| :next |.x{384}|))
(define-fun .def_226 () Bool (and .def_64 .def_100))
(define-fun .def_227 () Bool (and .def_60 .def_226))
(define-fun .def_228 () Bool (! (not .def_227) :invar-property 0))
(assert true)
